20	5
0	10	7	4	8	10	3	5	9	1	2	6
1	4	20	17	15	18
2	6	18	12	17	11	13	19
3	5	16	13	12	18	19
4	1	21
5	2	11	15
6	5	14	16	13	15	18
7	4	12	15	14	17
8	2	14	19
9	4	16	13	15	17
10	7	13	16	17	20	14	19	18
11	1	21
12	1	21
13	1	21
14	1	21
15	1	21
16	1	21
17	1	21
18	1	21
19	1	21
20	1	21
21	0
0	0	0	0	0	0	0
1	10	5	2	0	0	0
2	2	1	4	5	5	1
3	1	3	5	0	0	1
4	8	1	2	0	0	0
5	2	0	5	3	3	0
6	4	1	0	0	0	1
7	9	2	0	0	3	0
8	6	0	0	0	0	2
9	8	0	0	4	0	0
10	6	0	2	5	2	1
11	1	0	2	0	0	0
12	1	0	0	0	0	3
13	8	0	4	0	1	2
14	9	1	3	0	0	2
15	1	5	2	3	0	0
16	7	0	4	2	1	5
17	5	4	0	0	2	3
18	5	3	0	0	0	0
19	3	0	0	1	0	0
20	4	5	4	1	1	1
21	0	0	0	0	0	0
7	9	8	7	6
